c Reading file examples/loan_acquisition/mmc_encoding/encoding.dimacs
c Building 1-fold quantitative self-composition...
c ind 101  102  107  108  109  110  111  112  116  117 0
c previous ind: 447  450  451  454  455  458  459  462  463  466  467  470  471  474  475  478  479  482  483  486  487  490  493  494  497  500  501  502  505  506  509  510  513  514  517  518  520  521  522 0
c This is a CNF SAT formula in the DIMACS CNF format,
c produced with the bc2cnf translator by Tommi Junttila;
c see http://users.ics.aalto.fi/tjunttil/circuits/index.html
c phi_Gamma_det <-> 1
c phi_Gamma <-> 1
c phi_T_transitions <-> 1
c phi_T <-> 1
c phi_sim_leaves <-> 1
c phi_sim_transition <-> 1
c phi_sim <-> 1
c FORMULA <-> 1
c pi_0 <-> 2
c phi_T_transitions_consistency <-> 84
c tau_0_3_approved_1 <-> 101
c tau_0_3_approved_0 <-> 102
c tau_0_2_approved_1 <-> 107
c tau_0_2_approved_0 <-> 108
c tau_0_1_approved_1 <-> 109
c tau_0_1_approved_0 <-> 110
c tau_0_0_approved_1 <-> 111
c tau_0_0_approved_0 <-> 112
c phi_T_feature_det <-> 113
c lam_0_monthly_income <-> 116
c lam_0_age <-> 117
c phi_Gamma_val <-> 445
c monthly_income_P779000 <-> 447
c monthly_income_P682800 <-> 450
c age_P5300 <-> 451
c monthly_income_P804200 <-> 454
c age_P7800 <-> 455
c monthly_income_P750000 <-> 458
c age_P6300 <-> 459
c monthly_income_P877600 <-> 462
c age_P3800 <-> 463
c monthly_income_P160100 <-> 466
c age_P7200 <-> 467
c monthly_income_P861300 <-> 470
c age_P4200 <-> 471
c monthly_income_P223900 <-> 474
c age_P4500 <-> 475
c monthly_income_P138100 <-> 478
c age_P2800 <-> 479
c monthly_income_P191500 <-> 482
c age_P6900 <-> 483
c monthly_income_P434200 <-> 486
c age_P3500 <-> 487
c monthly_income_P382300 <-> 490
c monthly_income_P754000 <-> 493
c age_P7400 <-> 494
c monthly_income_P927600 <-> 497
c pi_approved_0 <-> 500
c approved_P0 <-> 500
c monthly_income_P855500 <-> 501
c age_P2900 <-> 502
c monthly_income_P387300 <-> 505
c age_P7000 <-> 506
c monthly_income_P717200 <-> 509
c age_P6600 <-> 510
c monthly_income_P621500 <-> 513
c age_P4000 <-> 514
c monthly_income_P967200 <-> 517
c age_P4400 <-> 518
c pi_approved_1 <-> 520
c approved_P100 <-> 520
c monthly_income_P234000 <-> 521
c age_P5900 <-> 522
c ind 447 450 451 454 455 458 459 462 463 466 467 470 471 474 475 478 479 482 483 486 487 490 493 494 497 500 501 502 505 506 509 510 513 514 517 518 520 521 522 0
p cnf 524 1459
1 0
2 -3 0
2 -15 0
-2 15 3 0
2 0
-3 4 0
-3 57 0
3 -57 -4 0
-4 5 0
-4 116 0
4 -116 -5 0
5 -6 0
5 -62 0
-5 62 6 0
6 -7 0
6 -51 0
-6 51 7 0
7 -8 0
7 -32 0
-7 32 8 0
8 -9 0
8 -34 0
-8 34 9 0
9 -10 0
9 -64 0
-9 64 10 0
10 -11 0
10 -66 0
-10 66 11 0
11 -12 0
11 -40 0
-11 40 12 0
12 -13 0
12 -53 0
-12 53 13 0
13 -14 0
13 -83 0
-13 83 14 0
14 -43 0
14 -71 0
-14 71 43 0
15 -16 0
15 -25 0
-15 25 16 0
-16 17 0
-16 75 0
16 -75 -17 0
-17 18 0
-17 116 0
17 -116 -18 0
18 -19 0
18 -36 0
-18 36 19 0
19 -20 0
19 -68 0
-19 68 20 0
20 -21 0
20 -80 0
-20 80 21 0
21 -22 0
21 -38 0
-21 38 22 0
22 -23 0
22 -70 0
-22 70 23 0
23 -24 0
23 -82 0
-23 82 24 0
24 -42 0
24 -54 0
-24 54 42 0
25 -26 0
25 -44 0
-25 44 26 0
-26 27 0
-26 30 0
26 -30 -27 0
-27 28 0
-27 29 0
27 -29 -28 0
28 101 0
28 -520 0
-28 520 -101 0
29 102 0
29 -500 0
-29 500 -102 0
-30 31 0
-30 117 0
30 -117 -31 0
31 -32 0
31 -33 0
-31 33 32 0
-32 454 0
-32 455 0
32 -455 -454 0
33 -34 0
33 -35 0
-33 35 34 0
-34 458 0
-34 459 0
34 -459 -458 0
35 -36 0
35 -37 0
-35 37 36 0
-36 466 0
-36 467 0
36 -467 -466 0
37 -38 0
37 -39 0
-37 39 38 0
-38 482 0
-38 483 0
38 -483 -482 0
39 -40 0
39 -41 0
-39 41 40 0
-40 493 0
-40 494 0
40 -494 -493 0
41 -42 0
41 -43 0
-41 43 42 0
-42 505 0
-42 506 0
42 -506 -505 0
-43 509 0
-43 510 0
43 -510 -509 0
44 -45 0
44 -55 0
-44 55 45 0
-45 46 0
-45 49 0
45 -49 -46 0
-46 47 0
-46 48 0
46 -48 -47 0
47 107 0
47 -520 0
-47 520 -107 0
48 108 0
48 -500 0
-48 500 -108 0
-49 50 0
-49 117 0
49 -117 -50 0
50 -51 0
50 -52 0
-50 52 51 0
-51 450 0
-51 451 0
51 -451 -450 0
52 -53 0
52 -54 0
-52 54 53 0
-53 497 0
-53 522 0
53 -522 -497 0
-54 521 0
-54 522 0
54 -522 -521 0
55 -56 0
55 -74 0
-55 74 56 0
-56 57 0
-56 60 0
56 -60 -57 0
-57 58 0
-57 59 0
57 -59 -58 0
58 109 0
58 -520 0
-58 520 -109 0
59 110 0
59 -500 0
-59 500 -110 0
-60 61 0
-60 117 0
60 -117 -61 0
61 -62 0
61 -63 0
-61 63 62 0
-62 447 0
-62 463 0
62 -463 -447 0
63 -64 0
63 -65 0
-63 65 64 0
-64 462 0
-64 463 0
64 -463 -462 0
65 -66 0
65 -67 0
-65 67 66 0
-66 470 0
-66 471 0
66 -471 -470 0
67 -68 0
67 -69 0
-67 69 68 0
-68 474 0
-68 475 0
68 -475 -474 0
69 -70 0
69 -71 0
-69 71 70 0
-70 486 0
-70 487 0
70 -487 -486 0
71 -72 0
71 -73 0
-71 73 72 0
-72 513 0
-72 514 0
72 -514 -513 0
-73 517 0
-73 518 0
73 -518 -517 0
-74 75 0
-74 78 0
74 -78 -75 0
-75 76 0
-75 77 0
75 -77 -76 0
76 111 0
76 -520 0
-76 520 -111 0
77 112 0
77 -500 0
-77 500 -112 0
-78 79 0
-78 117 0
78 -117 -79 0
79 -80 0
79 -81 0
-79 81 80 0
-80 478 0
-80 479 0
80 -479 -478 0
81 -82 0
81 -83 0
-81 83 82 0
-82 490 0
-82 502 0
82 -502 -490 0
-83 501 0
-83 502 0
83 -502 -501 0
84 116 0
84 -85 0
-84 85 -116 0
84 0
-85 -101 0
-85 86 0
85 -86 101 0
-86 -102 0
-86 87 0
86 -87 102 0
-87 -107 0
-87 -108 0
87 108 107 0
88 116 0
88 -89 0
-88 89 -116 0
88 0
-89 90 0
-89 93 0
89 -93 -90 0
90 -91 0
90 -92 0
-90 92 91 0
-91 -110 0
-91 109 0
91 -109 110 0
-92 -109 0
-92 110 0
92 -110 109 0
93 -94 0
93 -95 0
-93 95 94 0
-94 -112 0
-94 111 0
94 -111 112 0
-95 -111 0
-95 112 0
95 -112 111 0
96 117 0
96 -97 0
-96 97 -117 0
96 0
-97 98 0
-97 103 0
97 -103 -98 0
98 -99 0
98 -100 0
-98 100 99 0
-99 -102 0
-99 101 0
99 -101 102 0
-100 -101 0
-100 102 0
100 -102 101 0
-103 89 0
-103 104 0
103 -104 -89 0
104 -105 0
104 -106 0
-104 106 105 0
-105 -108 0
-105 107 0
105 -107 108 0
-106 -107 0
-106 108 0
106 -108 107 0
113 -114 0
113 -115 0
-113 115 114 0
113 0
-114 -117 0
-114 116 0
114 -116 117 0
-115 -116 0
-115 117 0
115 -117 116 0
118 520 0
118 500 0
-118 -500 -520 0
118 0
119 450 0
119 447 0
-119 -447 -450 0
119 0
120 454 0
120 -121 0
-120 121 -454 0
120 0
-121 -450 0
-121 -447 0
121 447 450 0
122 458 0
122 -123 0
-122 123 -458 0
122 0
-123 -447 0
-123 124 0
123 -124 447 0
-124 -450 0
-124 -454 0
124 454 450 0
125 462 0
125 -126 0
-125 126 -462 0
125 0
-126 -447 0
-126 127 0
126 -127 447 0
-127 -450 0
-127 128 0
127 -128 450 0
-128 -454 0
-128 -458 0
128 458 454 0
129 466 0
129 -130 0
-129 130 -466 0
129 0
-130 -447 0
-130 131 0
130 -131 447 0
-131 -450 0
-131 132 0
131 -132 450 0
-132 -454 0
-132 133 0
132 -133 454 0
-133 -458 0
-133 -462 0
133 462 458 0
134 470 0
134 -135 0
-134 135 -470 0
134 0
-135 -447 0
-135 136 0
135 -136 447 0
-136 -450 0
-136 137 0
136 -137 450 0
-137 -454 0
-137 138 0
137 -138 454 0
-138 -458 0
-138 139 0
138 -139 458 0
-139 -462 0
-139 -466 0
139 466 462 0
140 474 0
140 -141 0
-140 141 -474 0
140 0
-141 -447 0
-141 142 0
141 -142 447 0
-142 -450 0
-142 143 0
142 -143 450 0
-143 -454 0
-143 144 0
143 -144 454 0
-144 -458 0
-144 145 0
144 -145 458 0
-145 -462 0
-145 146 0
145 -146 462 0
-146 -466 0
-146 -470 0
146 470 466 0
147 478 0
147 -148 0
-147 148 -478 0
147 0
-148 -447 0
-148 149 0
148 -149 447 0
-149 -450 0
-149 150 0
149 -150 450 0
-150 -454 0
-150 151 0
150 -151 454 0
-151 -458 0
-151 152 0
151 -152 458 0
-152 -462 0
-152 153 0
152 -153 462 0
-153 -466 0
-153 154 0
153 -154 466 0
-154 -470 0
-154 -474 0
154 474 470 0
155 482 0
155 -156 0
-155 156 -482 0
155 0
-156 -447 0
-156 157 0
156 -157 447 0
-157 -450 0
-157 158 0
157 -158 450 0
-158 -454 0
-158 159 0
158 -159 454 0
-159 -458 0
-159 160 0
159 -160 458 0
-160 -462 0
-160 161 0
160 -161 462 0
-161 -466 0
-161 162 0
161 -162 466 0
-162 -470 0
-162 163 0
162 -163 470 0
-163 -474 0
-163 -478 0
163 478 474 0
164 486 0
164 -165 0
-164 165 -486 0
164 0
-165 -447 0
-165 166 0
165 -166 447 0
-166 -450 0
-166 167 0
166 -167 450 0
-167 -454 0
-167 168 0
167 -168 454 0
-168 -458 0
-168 169 0
168 -169 458 0
-169 -462 0
-169 170 0
169 -170 462 0
-170 -466 0
-170 171 0
170 -171 466 0
-171 -470 0
-171 172 0
171 -172 470 0
-172 -474 0
-172 173 0
172 -173 474 0
-173 -478 0
-173 -482 0
173 482 478 0
174 490 0
174 -175 0
-174 175 -490 0
174 0
-175 -447 0
-175 176 0
175 -176 447 0
-176 -450 0
-176 177 0
176 -177 450 0
-177 -454 0
-177 178 0
177 -178 454 0
-178 -458 0
-178 179 0
178 -179 458 0
-179 -462 0
-179 180 0
179 -180 462 0
-180 -466 0
-180 181 0
180 -181 466 0
-181 -470 0
-181 182 0
181 -182 470 0
-182 -474 0
-182 183 0
182 -183 474 0
-183 -478 0
-183 184 0
183 -184 478 0
-184 -482 0
-184 -486 0
184 486 482 0
185 493 0
185 -186 0
-185 186 -493 0
185 0
-186 -447 0
-186 187 0
186 -187 447 0
-187 -450 0
-187 188 0
187 -188 450 0
-188 -454 0
-188 189 0
188 -189 454 0
-189 -458 0
-189 190 0
189 -190 458 0
-190 -462 0
-190 191 0
190 -191 462 0
-191 -466 0
-191 192 0
191 -192 466 0
-192 -470 0
-192 193 0
192 -193 470 0
-193 -474 0
-193 194 0
193 -194 474 0
-194 -478 0
-194 195 0
194 -195 478 0
-195 -482 0
-195 196 0
195 -196 482 0
-196 -486 0
-196 -490 0
196 490 486 0
197 497 0
197 -198 0
-197 198 -497 0
197 0
-198 -447 0
-198 199 0
198 -199 447 0
-199 -450 0
-199 200 0
199 -200 450 0
-200 -454 0
-200 201 0
200 -201 454 0
-201 -458 0
-201 202 0
201 -202 458 0
-202 -462 0
-202 203 0
202 -203 462 0
-203 -466 0
-203 204 0
203 -204 466 0
-204 -470 0
-204 205 0
204 -205 470 0
-205 -474 0
-205 206 0
205 -206 474 0
-206 -478 0
-206 207 0
206 -207 478 0
-207 -482 0
-207 208 0
207 -208 482 0
-208 -486 0
-208 209 0
208 -209 486 0
-209 -490 0
-209 -493 0
209 493 490 0
210 501 0
210 -211 0
-210 211 -501 0
210 0
-211 -447 0
-211 212 0
211 -212 447 0
-212 -450 0
-212 213 0
212 -213 450 0
-213 -454 0
-213 214 0
213 -214 454 0
-214 -458 0
-214 215 0
214 -215 458 0
-215 -462 0
-215 216 0
215 -216 462 0
-216 -466 0
-216 217 0
216 -217 466 0
-217 -470 0
-217 218 0
217 -218 470 0
-218 -474 0
-218 219 0
218 -219 474 0
-219 -478 0
-219 220 0
219 -220 478 0
-220 -482 0
-220 221 0
220 -221 482 0
-221 -486 0
-221 222 0
221 -222 486 0
-222 -490 0
-222 223 0
222 -223 490 0
-223 -493 0
-223 -497 0
223 497 493 0
224 505 0
224 -225 0
-224 225 -505 0
224 0
-225 -447 0
-225 226 0
225 -226 447 0
-226 -450 0
-226 227 0
226 -227 450 0
-227 -454 0
-227 228 0
227 -228 454 0
-228 -458 0
-228 229 0
228 -229 458 0
-229 -462 0
-229 230 0
229 -230 462 0
-230 -466 0
-230 231 0
230 -231 466 0
-231 -470 0
-231 232 0
231 -232 470 0
-232 -474 0
-232 233 0
232 -233 474 0
-233 -478 0
-233 234 0
233 -234 478 0
-234 -482 0
-234 235 0
234 -235 482 0
-235 -486 0
-235 236 0
235 -236 486 0
-236 -490 0
-236 237 0
236 -237 490 0
-237 -493 0
-237 238 0
237 -238 493 0
-238 -497 0
-238 -501 0
238 501 497 0
239 509 0
239 -240 0
-239 240 -509 0
239 0
-240 -447 0
-240 241 0
240 -241 447 0
-241 -450 0
-241 242 0
241 -242 450 0
-242 -454 0
-242 243 0
242 -243 454 0
-243 -458 0
-243 244 0
243 -244 458 0
-244 -462 0
-244 245 0
244 -245 462 0
-245 -466 0
-245 246 0
245 -246 466 0
-246 -470 0
-246 247 0
246 -247 470 0
-247 -474 0
-247 248 0
247 -248 474 0
-248 -478 0
-248 249 0
248 -249 478 0
-249 -482 0
-249 250 0
249 -250 482 0
-250 -486 0
-250 251 0
250 -251 486 0
-251 -490 0
-251 252 0
251 -252 490 0
-252 -493 0
-252 253 0
252 -253 493 0
-253 -497 0
-253 254 0
253 -254 497 0
-254 -501 0
-254 -505 0
254 505 501 0
255 513 0
255 -256 0
-255 256 -513 0
255 0
-256 -447 0
-256 257 0
256 -257 447 0
-257 -450 0
-257 258 0
257 -258 450 0
-258 -454 0
-258 259 0
258 -259 454 0
-259 -458 0
-259 260 0
259 -260 458 0
-260 -462 0
-260 261 0
260 -261 462 0
-261 -466 0
-261 262 0
261 -262 466 0
-262 -470 0
-262 263 0
262 -263 470 0
-263 -474 0
-263 264 0
263 -264 474 0
-264 -478 0
-264 265 0
264 -265 478 0
-265 -482 0
-265 266 0
265 -266 482 0
-266 -486 0
-266 267 0
266 -267 486 0
-267 -490 0
-267 268 0
267 -268 490 0
-268 -493 0
-268 269 0
268 -269 493 0
-269 -497 0
-269 270 0
269 -270 497 0
-270 -501 0
-270 271 0
270 -271 501 0
-271 -505 0
-271 -509 0
271 509 505 0
272 517 0
272 -273 0
-272 273 -517 0
272 0
-273 -447 0
-273 274 0
273 -274 447 0
-274 -450 0
-274 275 0
274 -275 450 0
-275 -454 0
-275 276 0
275 -276 454 0
-276 -458 0
-276 277 0
276 -277 458 0
-277 -462 0
-277 278 0
277 -278 462 0
-278 -466 0
-278 279 0
278 -279 466 0
-279 -470 0
-279 280 0
279 -280 470 0
-280 -474 0
-280 281 0
280 -281 474 0
-281 -478 0
-281 282 0
281 -282 478 0
-282 -482 0
-282 283 0
282 -283 482 0
-283 -486 0
-283 284 0
283 -284 486 0
-284 -490 0
-284 285 0
284 -285 490 0
-285 -493 0
-285 286 0
285 -286 493 0
-286 -497 0
-286 287 0
286 -287 497 0
-287 -501 0
-287 288 0
287 -288 501 0
-288 -505 0
-288 289 0
288 -289 505 0
-289 -509 0
-289 -513 0
289 513 509 0
290 521 0
290 -291 0
-290 291 -521 0
290 0
-291 -447 0
-291 292 0
291 -292 447 0
-292 -450 0
-292 293 0
292 -293 450 0
-293 -454 0
-293 294 0
293 -294 454 0
-294 -458 0
-294 295 0
294 -295 458 0
-295 -462 0
-295 296 0
295 -296 462 0
-296 -466 0
-296 297 0
296 -297 466 0
-297 -470 0
-297 298 0
297 -298 470 0
-298 -474 0
-298 299 0
298 -299 474 0
-299 -478 0
-299 300 0
299 -300 478 0
-300 -482 0
-300 301 0
300 -301 482 0
-301 -486 0
-301 302 0
301 -302 486 0
-302 -490 0
-302 303 0
302 -303 490 0
-303 -493 0
-303 304 0
303 -304 493 0
-304 -497 0
-304 305 0
304 -305 497 0
-305 -501 0
-305 306 0
305 -306 501 0
-306 -505 0
-306 307 0
306 -307 505 0
-307 -509 0
-307 308 0
307 -308 509 0
-308 -513 0
-308 -517 0
308 517 513 0
309 455 0
309 451 0
-309 -451 -455 0
309 0
310 459 0
310 -311 0
-310 311 -459 0
310 0
-311 -455 0
-311 -451 0
311 451 455 0
312 463 0
312 -313 0
-312 313 -463 0
312 0
-313 -451 0
-313 314 0
313 -314 451 0
-314 -455 0
-314 -459 0
314 459 455 0
315 467 0
315 -316 0
-315 316 -467 0
315 0
-316 -451 0
-316 317 0
316 -317 451 0
-317 -455 0
-317 318 0
317 -318 455 0
-318 -459 0
-318 -463 0
318 463 459 0
319 471 0
319 -320 0
-319 320 -471 0
319 0
-320 -451 0
-320 321 0
320 -321 451 0
-321 -455 0
-321 322 0
321 -322 455 0
-322 -459 0
-322 323 0
322 -323 459 0
-323 -463 0
-323 -467 0
323 467 463 0
324 475 0
324 -325 0
-324 325 -475 0
324 0
-325 -451 0
-325 326 0
325 -326 451 0
-326 -455 0
-326 327 0
326 -327 455 0
-327 -459 0
-327 328 0
327 -328 459 0
-328 -463 0
-328 329 0
328 -329 463 0
-329 -467 0
-329 -471 0
329 471 467 0
330 479 0
330 -331 0
-330 331 -479 0
330 0
-331 -451 0
-331 332 0
331 -332 451 0
-332 -455 0
-332 333 0
332 -333 455 0
-333 -459 0
-333 334 0
333 -334 459 0
-334 -463 0
-334 335 0
334 -335 463 0
-335 -467 0
-335 336 0
335 -336 467 0
-336 -471 0
-336 -475 0
336 475 471 0
337 483 0
337 -338 0
-337 338 -483 0
337 0
-338 -451 0
-338 339 0
338 -339 451 0
-339 -455 0
-339 340 0
339 -340 455 0
-340 -459 0
-340 341 0
340 -341 459 0
-341 -463 0
-341 342 0
341 -342 463 0
-342 -467 0
-342 343 0
342 -343 467 0
-343 -471 0
-343 344 0
343 -344 471 0
-344 -475 0
-344 -479 0
344 479 475 0
345 487 0
345 -346 0
-345 346 -487 0
345 0
-346 -451 0
-346 347 0
346 -347 451 0
-347 -455 0
-347 348 0
347 -348 455 0
-348 -459 0
-348 349 0
348 -349 459 0
-349 -463 0
-349 350 0
349 -350 463 0
-350 -467 0
-350 351 0
350 -351 467 0
-351 -471 0
-351 352 0
351 -352 471 0
-352 -475 0
-352 353 0
352 -353 475 0
-353 -479 0
-353 -483 0
353 483 479 0
354 494 0
354 -355 0
-354 355 -494 0
354 0
-355 -451 0
-355 356 0
355 -356 451 0
-356 -455 0
-356 357 0
356 -357 455 0
-357 -459 0
-357 358 0
357 -358 459 0
-358 -463 0
-358 359 0
358 -359 463 0
-359 -467 0
-359 360 0
359 -360 467 0
-360 -471 0
-360 361 0
360 -361 471 0
-361 -475 0
-361 362 0
361 -362 475 0
-362 -479 0
-362 363 0
362 -363 479 0
-363 -483 0
-363 -487 0
363 487 483 0
364 502 0
364 -365 0
-364 365 -502 0
364 0
-365 -451 0
-365 366 0
365 -366 451 0
-366 -455 0
-366 367 0
366 -367 455 0
-367 -459 0
-367 368 0
367 -368 459 0
-368 -463 0
-368 369 0
368 -369 463 0
-369 -467 0
-369 370 0
369 -370 467 0
-370 -471 0
-370 371 0
370 -371 471 0
-371 -475 0
-371 372 0
371 -372 475 0
-372 -479 0
-372 373 0
372 -373 479 0
-373 -483 0
-373 374 0
373 -374 483 0
-374 -487 0
-374 -494 0
374 494 487 0
375 506 0
375 -376 0
-375 376 -506 0
375 0
-376 -451 0
-376 377 0
376 -377 451 0
-377 -455 0
-377 378 0
377 -378 455 0
-378 -459 0
-378 379 0
378 -379 459 0
-379 -463 0
-379 380 0
379 -380 463 0
-380 -467 0
-380 381 0
380 -381 467 0
-381 -471 0
-381 382 0
381 -382 471 0
-382 -475 0
-382 383 0
382 -383 475 0
-383 -479 0
-383 384 0
383 -384 479 0
-384 -483 0
-384 385 0
384 -385 483 0
-385 -487 0
-385 386 0
385 -386 487 0
-386 -494 0
-386 -502 0
386 502 494 0
387 510 0
387 -388 0
-387 388 -510 0
387 0
-388 -451 0
-388 389 0
388 -389 451 0
-389 -455 0
-389 390 0
389 -390 455 0
-390 -459 0
-390 391 0
390 -391 459 0
-391 -463 0
-391 392 0
391 -392 463 0
-392 -467 0
-392 393 0
392 -393 467 0
-393 -471 0
-393 394 0
393 -394 471 0
-394 -475 0
-394 395 0
394 -395 475 0
-395 -479 0
-395 396 0
395 -396 479 0
-396 -483 0
-396 397 0
396 -397 483 0
-397 -487 0
-397 398 0
397 -398 487 0
-398 -494 0
-398 399 0
398 -399 494 0
-399 -502 0
-399 -506 0
399 506 502 0
400 514 0
400 -401 0
-400 401 -514 0
400 0
-401 -451 0
-401 402 0
401 -402 451 0
-402 -455 0
-402 403 0
402 -403 455 0
-403 -459 0
-403 404 0
403 -404 459 0
-404 -463 0
-404 405 0
404 -405 463 0
-405 -467 0
-405 406 0
405 -406 467 0
-406 -471 0
-406 407 0
406 -407 471 0
-407 -475 0
-407 408 0
407 -408 475 0
-408 -479 0
-408 409 0
408 -409 479 0
-409 -483 0
-409 410 0
409 -410 483 0
-410 -487 0
-410 411 0
410 -411 487 0
-411 -494 0
-411 412 0
411 -412 494 0
-412 -502 0
-412 413 0
412 -413 502 0
-413 -506 0
-413 -510 0
413 510 506 0
414 518 0
414 -415 0
-414 415 -518 0
414 0
-415 -451 0
-415 416 0
415 -416 451 0
-416 -455 0
-416 417 0
416 -417 455 0
-417 -459 0
-417 418 0
417 -418 459 0
-418 -463 0
-418 419 0
418 -419 463 0
-419 -467 0
-419 420 0
419 -420 467 0
-420 -471 0
-420 421 0
420 -421 471 0
-421 -475 0
-421 422 0
421 -422 475 0
-422 -479 0
-422 423 0
422 -423 479 0
-423 -483 0
-423 424 0
423 -424 483 0
-424 -487 0
-424 425 0
424 -425 487 0
-425 -494 0
-425 426 0
425 -426 494 0
-426 -502 0
-426 427 0
426 -427 502 0
-427 -506 0
-427 428 0
427 -428 506 0
-428 -510 0
-428 -514 0
428 514 510 0
429 522 0
429 -430 0
-429 430 -522 0
429 0
-430 -451 0
-430 431 0
430 -431 451 0
-431 -455 0
-431 432 0
431 -432 455 0
-432 -459 0
-432 433 0
432 -433 459 0
-433 -463 0
-433 434 0
433 -434 463 0
-434 -467 0
-434 435 0
434 -435 467 0
-435 -471 0
-435 436 0
435 -436 471 0
-436 -475 0
-436 437 0
436 -437 475 0
-437 -479 0
-437 438 0
437 -438 479 0
-438 -483 0
-438 439 0
438 -439 483 0
-439 -487 0
-439 440 0
439 -440 487 0
-440 -494 0
-440 441 0
440 -441 494 0
-441 -502 0
-441 442 0
441 -442 502 0
-442 -506 0
-442 443 0
442 -443 506 0
-443 -510 0
-443 444 0
443 -444 510 0
-444 -514 0
-444 -518 0
444 518 514 0
445 -446 0
445 -448 0
-445 448 446 0
445 0
-446 62 0
-446 520 0
446 -520 -62 0
448 -449 0
448 -452 0
-448 452 449 0
-449 51 0
-449 520 0
449 -520 -51 0
452 -453 0
452 -456 0
-452 456 453 0
-453 32 0
-453 520 0
453 -520 -32 0
456 -457 0
456 -460 0
-456 460 457 0
-457 34 0
-457 520 0
457 -520 -34 0
460 -461 0
460 -464 0
-460 464 461 0
-461 64 0
-461 520 0
461 -520 -64 0
464 -465 0
464 -468 0
-464 468 465 0
-465 36 0
-465 520 0
465 -520 -36 0
468 -469 0
468 -472 0
-468 472 469 0
-469 66 0
-469 520 0
469 -520 -66 0
472 -473 0
472 -476 0
-472 476 473 0
-473 68 0
-473 520 0
473 -520 -68 0
476 -477 0
476 -480 0
-476 480 477 0
-477 80 0
-477 520 0
477 -520 -80 0
480 -481 0
480 -484 0
-480 484 481 0
-481 38 0
-481 520 0
481 -520 -38 0
484 -485 0
484 -488 0
-484 488 485 0
-485 70 0
-485 520 0
485 -520 -70 0
488 -489 0
488 -491 0
-488 491 489 0
-489 82 0
-489 520 0
489 -520 -82 0
491 -492 0
491 -495 0
-491 495 492 0
-492 40 0
-492 520 0
492 -520 -40 0
495 -496 0
495 -498 0
-495 498 496 0
-496 53 0
-496 520 0
496 -520 -53 0
498 -499 0
498 -503 0
-498 503 499 0
-499 83 0
-499 500 0
499 -500 -83 0
503 -504 0
503 -507 0
-503 507 504 0
-504 42 0
-504 520 0
504 -520 -42 0
507 -508 0
507 -511 0
-507 511 508 0
-508 43 0
-508 520 0
508 -520 -43 0
511 -512 0
511 -515 0
-511 515 512 0
-512 72 0
-512 520 0
512 -520 -72 0
515 -516 0
515 -519 0
-515 519 516 0
-516 73 0
-516 520 0
516 -520 -73 0
-519 54 0
-519 520 0
519 -520 -54 0
